# "secr.dat" produced by dat_write() from R2admb Tue Jul 11 16:02:50 2017
# n_unique 
 6 

# local 
 0 

# all_n_local 
 1 1 1 1 1 1 

# all_which_local 
 0 0 0 0 0 0 

# D_lb 
 -4.543879 

# D_ub 
 18.42068 

# D_phase 
 1 

# D_sf 
 14.41865 

# n_detpars 
 2 

# detpars_lb 
 -36.04365 -36.04365 

# detpars_ub 
 36.7368 18.42068 

# detpars_phase 
 -1 1 

# detpars_sf 
 1 6.131523 

# detpars_linkfns 
 3 2 

# n_suppars 
 1 

# suppars_lb 
 -36.04365 

# suppars_ub 
 6.55108 

# suppars_phase 
 1 

# suppars_sf 
 15.95459 

# suppars_linkfns 
 2 

# detfn_id 
 1 

# trace 
 0 

# DBL_MIN 
 1e-150 

# n 
 16 

# n_traps 
 3 

# n_mask 
 7966 

# A 
 0.1889128 

# capt_bin_unique 
0 0 1
0 1 0
1 0 0
1 0 1
1 1 0
1 1 1

# capt_bin_freqs 
 3 3 3 2 2 3 

# fit_angs 
 1 

# fit_dir 
 0 

# n_dir_quadpoints 
 1 

# fit_het_source 
 0 

# het_source_gh 
 0 

# n_het_source_quadpoints 
 1 

# het_source_nodes 
 0 

# het_source_weights 
 0 

# capt_ang 
NA NA 2.69582550954294
NA NA 5.7807001683373
NA NA 2.03507427224572
NA 4.18974957591925 NA
NA 1.5671390238655 NA
NA 0.790051603705983 NA
6.04313362270594 NA NA
4.06361576364618 NA NA
1.94895685056455 NA NA
3.12913342703663 NA 3.35987076646611
2.11013231296055 NA 1.42712530943637
3.32756154536772 3.81068820914351 NA
1.22302172843238 1.04195088704044 NA
1.26686460715517 3.38817034593934 5.45834021759779
2.03470084913999 2.63739802748386 3.69057675021921
3.92716169213566 2.75989232499825 4.42059679360213

# fit_dists 
 0 

# capt_dist 
 0 

# fit_ss 
 0 

# cutoff 
 0 

# first_calls 
 0 

# lower_cutoff 
 0 

# linkfn_id 
 4 

# capt_ss 
 0 

# fit_toas 
 0 

# capt_toa 
 0 

# fit_mrds 
 0 

# mrds_dist 
 0 

# dists 
2267.42583176612 2255.74398669608 2244.84302808218 2234.73438336668 2225.42884944267 2216.93653944371 2209.26683136465 2202.42831907732 2196.42876630178 2191.2750640804 2186.97319227776 2183.52818559345 2180.94410452879 2179.22401169205 2296.65513319094 2280.98543407787 2266.04116387963 2251.83676552652 2238.38632434513 2225.70350939026 2213.80151383708 2202.69299492258 2192.39001396947 2182.9039770644 2174.24557699274 2166.42473705408 2159.45055739315 2153.33126448063 2148.07416436499 2143.68560029063 2140.17091523851 2137.5344198938 2135.77936648124 2134.90792883481 2134.92118898447 2135.81913045239 2137.60063835516 2140.26350631057 2308.41927621126 2290.3568577127 2272.98213209384 2256.3109861503 2240.35912654326 2225.14202283971 2210.67484809213 2196.97241731105 2184.0491242466 2171.91887695595 2160.59503269151 2150.09033269844 2140.41683755613 2131.58586373684 2123.60792208215 2116.49265891376 2110.24880049723 2104.88410156536 2100.40529858016 2096.81806837004 2094.12699272058 2092.33552942573 2091.44599022111 2091.45952592564 2092.37611901318 2094.19458372584 2096.91257372715 2100.5265971803 2105.03203902627 2110.42319013291 2328.25189172893 2307.89018011082 2288.17297244394 2269.11706979882 2250.73926907144 2233.05631243068 2216.0848331892 2199.84129826547 2184.34194746973 2169.60272991528 2155.63923792786 2142.46663889803 2130.09960559272 2118.55224551105 2107.83802993303 2097.96972336649 2088.95931414458 2080.8179469619 2073.55585815875 2067.18231456944 2061.70555673968 2057.13274728985 2053.46992515394 2050.72196635956 2048.89255193285 2047.98414341533 2047.99796636954 2048.93400213021 2050.7909879301 2053.56642539843 2057.25659729906 2061.85659224782 2067.36033702871 2073.76063601891 2081.04921713593 2089.2167836395 2333.40142149107 2311.45103634325 2290.11524803151 2269.41139095119 2249.35691470919 2229.96933933619 2211.26620633232 2193.2650255757 2175.98321818397 2159.43805548606 2143.64659433474 2128.62560906866 2114.39152051395 2100.96032249971 2088.34750644459 2076.56798465328 2065.63601303788 2055.56511404761 2046.36800064858 2038.05650224075 2030.64149342802 2024.13282656938 2018.53926903054 2013.86844602605 2010.12678989133 2007.31949655173 2005.45048986331 2004.52239438917 2004.53651704848 2005.49283793595 2007.39001046194 2010.22537081064 2013.99495656211 2018.69353417572 2024.31463489412 2030.8505985002 2038.29262424931 2046.63082820719 2055.85430615241 2065.95120115195 2342.5752490765 2319.0830051261 2296.17321384996 2273.8634804222 2252.17163720973 2231.11570644925 2210.71385844834 2190.98436520322 2171.94554937568 2153.6157286292 2136.01315539109 2119.15595218165 2103.06204273399 2087.74907921628 2073.23436596223 2059.53478021217 2046.66669046497 2034.64587313677 2023.48742831394 2013.20569547055 2003.81417009262 1995.32542220844 1987.75101786342 1981.10144459622 1975.38604196847 1970.61293817048 1966.78899367073 1963.91975279597 1962.00940402397 1961.06074964372 1961.07518529156 1962.05268970991 1963.99182490353 1966.88974669052 1970.74222546814 1975.54367684148 1981.28720160204 1987.96463439723 1995.56660030545 2004.08257842674 2013.50097151974 2023.80918066074 2034.99368387249 2047.04011766588 2355.72635988292 2330.7460945391 2306.31443823902 2282.44900821653 2259.16774907176 2236.48890407301 2214.43098196712 2193.01271907129 2172.25303645304 2152.17099204708 2132.78572760996 2114.11641047578 2096.18217014832 2079.00202984769 2062.59483322158 2046.97916653109 2032.17327672881 2018.19498595838 2005.06160311916 1992.78983325297 1981.39568561872 1970.89438142153 1961.30026225152 1952.62670035909 1944.88601194543 1938.08937467424 1932.24675061126 1927.36681576933 1923.45689737729 1920.52291990128 1918.56936072752 1917.59921626943 1917.61397909232 1918.613626461 1920.59662051452 1923.55992006493 1927.49900380961 1932.40790454611 1938.27925379083 1945.10433603394 1952.87315171738 1961.57448790442 1971.1959955202 1981.72427198403 1993.14494802682 2005.44277748767 2018.60172891249 2032.60507782943 2346.38019320099 2320.48538658393 2295.12158804531 2270.30659487482 2246.05859714545 2222.39615396272 2199.33816516334 2176.90383816057 2155.11264965681 2133.98430197643 2113.5386738149 2093.79576525484 2074.77563696544 2056.49834358068 2038.98386134201 2022.25201019426 2006.32237063606 1991.21419574918 1976.9463189601 1963.53705822047 1951.00411742742 1939.36448603423 1928.63433792446 1918.82893073099 1909.96250687221 1902.04819764467 1895.09793175116 1889.12234965079 1884.13072509079 1880.13089511624 1877.12919975383 1875.13043242991 1874.13780201443 1874.1529071857 1875.17572359077 1877.20460404138 1880.2362917417 1884.26594630094 1889.287182049 1895.29211795393 1902.27143824439 1910.2144626719 1919.10922521357 1928.9425599165 1939.7001925228 1951.36683648851 1963.92629201806 1977.36154677663 1991.65487701065 2006.78794789789 2365.90658018754 2338.61280505378 2311.81400938888 2285.52760480164 2259.77147226714 2234.5639479981 2209.92380519595 2185.87023130585 2162.42280040348 2139.60144035262 2117.42639439287 2095.91817684818 2075.09752268948 2054.9853307408 2035.60260038794 2016.97036173337 1999.10959924011 1982.04116902134 1965.78571005984 1950.36354978087 1935.79460455149 1922.09827583448 1909.29334288357 1897.39785302176 1886.42901069245 1876.40306660669 1867.33520842358 1859.2394544878 1852.12855220373 1846.01388264306 1840.90537295971 1836.81141811874 1833.73881333445 1831.69269845832 1830.67651536263 1830.69197913614 1831.73906365097 1833.81600178287 1836.91930028059 1841.0437689936 1846.18256389107 1852.32724304834 1859.46783454868 1867.59291505448 1876.68969764866 1886.74412743699 1897.74098333617 1909.66398445066 1922.49589946002 1936.21865749497 1950.81345906806 1966.26088573947 1982.54100733258 1999.63348566182 2360.60554855434 2332.43996822939 2304.74990208931 2277.55269384177 2250.86620915805 2224.70882726068 2199.09942860982 2174.05737826557 2149.60250449432 2125.75507218588 2102.535750654 2079.96557541003 2058.06590352733 2036.85836225576 2016.3647906019 1996.6071736637 1977.60756959768 1959.38802920533 1941.97050825049 1925.37677276284 1909.62829774096 1894.74615984037 1880.75092481303 1867.66253065127 1855.50016757498 1844.28215617928 1834.02582522444 1824.74739069208 1816.46183784392 1809.18280809527 1802.9224925465 1797.69153399884 1793.49893921088 1790.35200302858 1788.2562458453 1787.21536562314 1787.23120543834 1788.30373721137 1790.43106195523 1793.60942653704 1797.83325660901 1803.09520503899 1809.38621486908 1816.69559556365 1825.01111108422 1834.31907815402 1844.60447295272 1855.85104441411 1868.04143228333 1881.1572881234 1895.17939753756 1910.0878019872 1925.86191872838 1942.48065755479 1959.9225332138 1978.16577254849 1997.18841560428 2356.89619586294 2327.87436760302 2299.30787866077 2271.21391037002 2243.61021318399 2216.51510416851 2189.94746091526 2163.92671141831 2138.47281943647 2113.60626484828 2089.34801849803 2065.7195110314 2042.74259523034 2020.43950138067 1998.83278524463 1977.9452682662 1957.79996971165 1938.42003054231 1919.828628933 1902.04888748746 1885.10377236169 1869.0159846857 1853.80784487159 1839.5011706065 1826.11714954883 1813.67620796779 1802.19787678237 1791.70065665775 1782.20188399495 1773.71759979454 1766.26242347651 1759.84943378907 1754.49005893129 1750.19397794307 1746.96903527969 1744.82117028719 1743.75436303312 1743.77059763324 1744.86984385706 1747.0500574087 1750.30719887685 1754.63527094578 1760.02637307292 1766.47077248277 1773.95699001356 1782.47189909364 1792.00083592542 1802.5277188201 1814.03517455714 1826.50466963672 1839.9166443449 1854.25064765485 1869.48547113314 1885.59928019868 1902.56974128469 1920.37414367014 1938.98951496907 1958.39272948547 1978.56060885219 1999.47001456886 2354.7860439534 2324.92547188275 2295.49947573054 2266.52498168618 2238.01952591892 2210.00125801764 2182.48894126481 2155.50194926964 2129.06025845341 2103.18443585069 2077.89562166677 2053.21550601433 2029.16629924504 2005.77069529506 1983.05182748092 1961.03321621661 1939.73870817507 1919.19240649263 1899.41859171265 1880.44163328905 1862.28589162039 1844.97561076246 1828.53480216995 1812.98712004346 1798.35572910332 1784.66316586979 1771.9311947941 1760.18066084562 1749.43134040861 1739.70179256423 1731.00921301908 1723.36929307712 1716.7960861278 1711.30188412938 1706.89710649594 1703.59020364702 1701.38757724934 1700.2935188764 1700.3101684417 1701.43749333844 1703.67328875808 1707.01319918042 1711.45076054878 1716.97746218413 1723.58282707038 1731.25450877507 1739.97840296784 1749.73877127229 1760.51837503924 1772.29861656172 1785.05968526007 1798.78070644351 1813.43989039187 1829.01467968793 1845.4818929542 1862.81786339624 1880.99857081627 1899.99976602525 1919.79708683954 1940.36616509297 1961.68272432012 1983.7226679687 2385.35675225833 2354.27939294364 2323.59943639005 2293.33283188544 2263.49616104681 2234.10664933481 2205.18217532901 2176.7412773304 2148.80315681489 2121.38767821907 2094.51536449847 2068.20738786009 2042.48555503739 2017.37228644892 1992.89058856383 1969.06401879138 1945.91664222029 1923.47297956049 1901.75794568793 1880.79677826538 1860.6149560127 1841.23810632988 1822.69190213892 1805.00194800525 1788.19365582734 1772.29211064033 1757.32192736367 1743.30709962612 1730.2708421166 1718.23542822554 1707.22202504487 1697.25052807346 1688.33939821098 1680.50550380402 1673.76397061778 1668.12804263319 1663.6089565035 1660.21583234125 1657.95558324487 1656.83284562069 1656.84993191921 1658.00680690166 1660.30108800248 1663.72806977902 1668.28077186589 1673.95000930216 1680.72448359818 1688.59089247469 1697.53405585543 1707.53705543625 1718.58138499324 1730.64710852937 1743.71302338867 1757.75682557852 1772.7552747232 1788.68435631008 1805.51943916876 1823.23542642814 1841.80689851225 1861.20824705095 1881.41379888425 1902.39792962252 1924.13516648142 1946.6002803368 1969.76836713929 1993.61491898919 2387.23181772551 2355.37727759212 2323.8990391779 2292.81260137959 2262.13411672619 2231.88040793554 2202.06898276482 2172.71804674276 2143.84651332293 2115.4740109466 2087.62088645246 2060.30820421922 2033.55774037816 2007.39197138707 1981.83405621788 1956.90781137977 1932.63767798099 1909.0486800296 1886.16637318986 1864.01678325063 1842.62633362989 1822.02176133849 1802.23002096129 1783.27817638631 1765.19328022617 1748.00224112958 1731.73167947313 1716.4077722517 1702.05608834131 1688.7014156836 1676.36758232265 1665.07727359759 1654.85184814186 1645.71115564193 1637.67335954655 1630.75476807246 1624.9696769085 1620.33022696349 1616.84628032767 1614.52531731953 1613.37235707707 1613.38990363569 1614.57791883363 1616.93382272594 1620.45252149624 1625.12646216543 1630.94571273712 1637.89806582072 1645.96916325955 1655.14263888097 1665.40027619212 1676.7221776723 1689.08694226021 1702.47184769327 1716.85303451424 1732.20568880021 1748.50422097325 1765.72243839998 1783.83370986072 1802.81112035072 1822.62761505014 1843.25613165532 1864.66972058993 1886.84165290661 1909.7455159419 1933.35529699936 1957.6454555075 1982.59098423282 2390.68634080142 2358.07745675843 2325.82365202278 2293.9399043574 2262.44185904442 2231.34585005729 2200.66892008721 2170.42883904683 2140.64412062187 2111.3340363851 2082.51862692794 2054.21870940362 2026.45588081368 1999.25251630784 1972.63176170834 1946.61751941574 1921.23442680753 1896.50782620665 1872.46372547883 1849.12874832 1826.53007332246 1804.6953609675 1783.65266778662 1763.43034706944 1744.05693567813 1725.56102675824 1707.97112841679 1691.31550876888 1675.62202813085 1660.9179595546 1647.22979934285 1634.58306964607 1623.00211569871 1612.50990068583 1603.12780161645 1594.8754098925 1587.77034047824 1581.82805367189 1577.06169344222 1573.48194610575 1571.09692278262 1569.91206858592 1569.93010088503 1571.15097826289 1573.57190099036 1577.18734300489 1581.98911454587 1587.96645380401 1595.10614522375 1603.39266148771 1612.80832573284 1623.33349021453 1634.94672745306 1647.62502986123 1661.34401395359 1676.07812545599 1691.80084195011 1708.48487007423 1726.10233473582 1744.62495824942 1764.02422777339 1784.27154986416 1805.33839138158 1827.1964063549 1849.81754874762 1873.17417133899 1897.23911116832 1921.98576216903 1947.38813575326 1973.42091020216 2362.37443621121 2329.36924699414 2296.71231482707 2264.41870721229 2232.50419088657 2200.98525650164 2169.87914239654 2139.20385707765 2108.97819996384 2079.22177988975 2049.95503079251 2021.19922393454 1992.97647594097 1965.30975185414 1938.22286233299 1911.74045405385 1885.887992305 1860.69173471394 1836.17869500868 1812.37659569782 1789.31380856491 1767.01928191725 1745.5224536144 1724.85314903477 1705.04146332478 1686.11762752089 1668.11185844207 1651.05419262114 1634.97430497457 1619.90131339558 1605.86357098379 1592.88844817938 1581.00210763054 1570.2292751632 1560.5930107127 1552.1144834868 1544.81275592614 1538.70458118286 1533.80421882735 1530.12327329874 1527.67055923283 1526.45199723459 1526.47054293052 1527.72615126735 1530.21577705765 1533.93341175702 1538.87015544242 1545.01432199725 1552.35157464419 1560.86508823869 1570.53573417573 1581.34228338517 1593.26162270331 1606.26897990186 1620.33815281538 1635.44173830858 1651.55135723744 1668.63787205082 1686.67159422046 1705.62247924812 1725.4603075531 1746.1548500704 1767.67601787374 1789.99399556702 1813.0793585567 1836.90317462332 1861.43709045364 1886.65340398023 1912.52512350617 1939.02601467665 1966.13063640283 1993.81436685293 2368.25952424411 2334.52843844155 2301.12388668455 2268.06029684099 2235.35279868774 2203.01725262292 2171.07027808078 2139.52928132234 2108.41248221596 2077.73893955686 2047.52857440282 2017.80219082538 1988.58149339215 1959.88910060805 1931.74855345128 1904.18431804761 1877.22178143505 1850.88723928508 1825.20787436964 1800.2117245013 1775.92763863322 1752.38521979307 1729.61475354933 1707.64712077765 1686.51369361868 1666.24621370458 1646.87665198849 1628.43704984356 1610.95934151052 1594.47515846288 1579.01561682235 1564.61108958135 1551.29096605745 1539.08340169088 1528.01506197017 1518.1108648954 1509.39372692404 1501.88431774896 1495.60082949338 1490.55876594005 1486.770757218 1484.24640493918 1482.99216211334 1483.01125129338 1484.30362335147 1486.8659581093 1490.69170680348 1495.77117512657 1502.09164440947 1509.63752746427 1518.39055473568 1528.32998575276 1539.43284044806 1551.67414472476 1565.02718469141 1579.46376422421 1594.95446092668 1611.46887609441 1628.97587491971 1647.44381384566 1666.84075266495 1687.13464962622 1708.29353843317 1730.28568658303 1753.07973497902 1776.64481916126 1800.95067283071 1825.96771459537 1851.667119052 1878.02087343843 1905.00182115949 1932.58369351237 1960.74113092405 1989.44969497173 2375.72091879466 2341.29055938376 2307.16521713962 2273.35862792406 2239.8852246026 2206.76016909126 2173.99938469191 2141.61958845457 2109.63832324933 2078.07398916656 2046.94587379281 2016.27418083023 1986.08005643938 1956.38561258979 1927.2139465998 1898.58915593861 1870.53634725044 1843.08163844707 1816.25215260297 1790.07600228244 1764.58226283687 1739.80093313802 1715.76288217101 1692.49977990606 1670.04401091311 1648.42856928951 1627.68693364892 1607.85292118134 1588.96052014824 1571.04370062916 1554.13620389006 1538.27131139323 1523.48159520472 1509.79865235667 1497.25282656168 1485.87292151593 1475.6859108225 1466.71665026487 1458.98759870906 1452.51855425941 1447.32641239193 1443.42495260584 1440.82465965205 1439.53258461772 1439.55225009352 1440.88360237074 1443.52301217225 1447.46332389434 1452.69395181025 1459.20102024749 1466.96754347702 1475.97364000753 1486.19677520764 1497.6120257051 1510.1923588384 1523.90892054272 1538.73132540541 1554.62794318014 1571.56617675093 1589.51272733408 1608.43384354623 1628.295551806 1649.06386633628 1670.7049777681 1693.18541999413 1716.47221547006 1740.53299961222 1765.33612529058 1790.85074867539 1817.04689787163 1843.89552587911 1871.36854945987 1899.43887548836 1928.08041631667 1957.26809561431 1986.9778460501 2384.74382404923 2349.6417704713 2314.82354597592 2280.30215206755 2246.09127523833 2212.20532160512 2178.65945237724 2145.46961996337 2112.65260447555 2080.22605032897 2048.20850256892 2016.61944247853 1985.47932193403 1954.8095958766 1924.63275216164 1894.97233792839 1865.85298150542 1837.30040873288 1809.34145244222 1782.00405369345 1755.31725323159 1729.31117149676 1704.0169754122 1679.46683009245 1655.69383357161 1632.73193266125 1610.61581812513 1589.3807975172 1569.06264428683 1549.69742212303 1531.32128400005 1513.97024600445 1497.67993676901 1482.48532420139 1468.42042215539 1455.51798071749 1443.80916482729 1433.3232269607 1424.08718051572 1416.12548128046 1409.45972486369 1404.10836816547 1400.08648281103 1397.40554793748 1396.07328880728 1396.09356645402 1397.46632200059 1400.1875775109 1404.24949334662 1409.64048011224 1416.34536149779 1424.34558277126 1433.61945841359 1444.14245148552 1455.8874767926 1468.82521977221 1482.92446323293 1498.15241458567 1514.47502695208 1531.85730845028 1550.26361497069 1569.65792280035 1590.00407847785 1611.26602421851 1633.40799810828 1656.39470900679 1680.19148671384 1704.76440844009 1730.08040298737 1756.10733429828 1782.81406619139 1810.17051017356 1838.14765822894 1866.71760244058 1895.85354321711 1925.5297877869 1955.72174049349 1986.40588628848 2395.3105938897 2359.56519896026 2324.08288822644 2288.87589676853 2253.9571261511 2219.34018088827 2185.03940622164 2151.06992709119 2117.44768813522 2084.18949450397 2051.31305321023 2018.83701466934 1986.78101399873 1955.16571155261 1924.01283206081 1893.3452016198 1863.18678165051 1833.56269879055 1804.49926952975 1776.02401822981 1748.16568699403 1720.95423567738 1694.42083015611 1668.59781681996 1643.5186811181 1619.21798789739 1595.73130123312 1573.0950814869 1551.34655745253 1530.52357169035 1510.66439752123 1491.80752667191 1473.99142724447 1457.25427252894 1441.63364218373 1427.16619845287 1413.88734133782 1401.83084794232 1391.02850249319 1381.50972472604 1373.30120532068 1366.42655778357 1360.90599651692 1356.75605071567 1353.98932315209 1352.61430183352 1352.63523098347 1354.05204587168 1356.86037381127 1361.05160128764 1366.61300483146 1373.52794104806 1381.7760893008 1391.33373902364 1402.17411257875 1414.26771400783 1427.58269394186 1442.08522128828 1457.73985303698 1474.50989452933 1492.35774372499 1511.24521428702 1531.1338336061 1551.9851131308 1573.76078951166 1596.42303606767 1619.93464492525 1644.25918085595 1669.36110835478 1695.20589386787 1721.76008531375 1748.99137116605 1776.86862139704 1805.36191254162 1834.44253904692 1864.08301294022 1894.25705369099 1924.93956997156 1956.10663484508 1987.73545573499 2371.04110450706 2334.92419710067 2299.06162366492 2263.46547331073 2228.14851493099 2193.12423646427 2158.40688583113 2124.01151345701 2089.95401625276 2056.25118287201 2022.92074000256 1989.9813993756 1957.45290509061 1925.35608075308 1893.71287580681 1862.54641030997 1831.88101725495 1801.74228136488 1772.15707311605 1743.15357653621 1714.76130911715 1687.01113196023 1659.93524805299 1633.56718636185 1607.94176923358 1583.09506044088 1559.06429110444 1535.88776069741 1513.60471041209 1492.25516637123 1471.87975052312 1452.51945759663 1434.21539723015 1417.00850133854 1400.93919794464 1386.04705405995 1372.37039171543 1359.94588285877 1348.80813046566 1338.98924475683 1330.51842474919 1323.42155637502 1317.72083895548 1313.43445181532 1310.57627220689 1309.15565445306 1309.17727835444 1310.64107252562 1313.54221556869 1317.87121503943 1323.61406121132 1330.75244989501 1339.26406620399 1349.12291930992 1360.29971699175 1372.76226818294 1386.47590173942 1401.40389021863 1417.50786847697 1434.74823823789 1453.08455133133 1472.47586593711 1492.88107177871 1514.25918172599 1536.56958861816 1559.77228727444 1583.82806260368 1608.69864545567 1634.34683838815 1660.73661387536 1687.8331876822 1715.60307019868 1744.01409850014 1773.03545179384 1802.63765275408 1832.79255705443 1863.47333319259 1894.65443448248 1926.31156486867 1958.42164000703 1990.9627448567 2384.04706809589 2347.32555338673 2310.83801693811 2274.59571874411 2238.61056979324 2202.89517202009 2167.46286032478 2132.32774664767 2097.50476605375 2063.00972473987 2028.85934982759 1995.07134074267 1961.66442190838 1928.65839639059 1896.07420002834 1863.93395546 1832.26102531239 1801.08006365605 1770.41706464273 1740.29940703188 1710.75589308096 1681.81678002255 1653.5138020827 1625.8801807172 1598.95062046282 1572.76128753421 1547.3497680591 1522.75500265711 1499.01719395755 1476.17768364852 1454.27879578913 1433.36364343465 1413.47589615708 1394.65950682319 1376.95839704253 1360.41610202835 1345.07537721442 1330.97777080514 1318.16316843734 1306.66931820202 1296.53134628312 1287.78127526273 1280.44755855066 1274.5546452537 1270.12258996353 1267.16672130859 1265.69738164645 1265.71974800104 1267.23374138766 1270.23402820163 1274.71011361397 1280.6465231892 1288.02306548517 1296.81516545169 1306.99425619533 1318.52821523398 1331.38183075594 1345.51728358442 1360.89463142455 1377.47228339244 1395.20745462709 1414.0565927989 1433.97577039764 1454.92103868059 1476.84874098931 1499.71578473604 1523.4798726828 1548.09969517831 1573.53508578969 1599.74714329159 1626.69832328752 1654.35250287286 1682.67502174228 1711.63270303167 1741.19385699526 1771.32827037988 1802.00718409067 1833.20326146343 1864.89054918094 1897.04443260221 1929.64158702286 1962.65992615317 1996.07854889167 2398.55820005435 2361.26237709308 2324.18089746925 2287.32418583487 2250.70328437751 2214.32989271443 2178.21641015949 2142.37598041659 2106.82253873035 2071.57086149542 2036.6366182876 2002.03642623242 1967.78790656702 1933.90974317826 1900.42174281042 1867.3448965287 1834.70144189605 1802.51492516913 1770.81026264192 1739.61380005933 1708.95336878868 1678.8583371714 1649.35965518261 1620.48989020502 1592.28325138076 1564.77559964907 1538.00444022277 1512.00889391936 1486.82964346825 1462.50885069426 1439.09004036599 1416.61794654047 1395.13831747929 1374.69767570755 1355.34303058339 1337.1215418819 1320.08013439969 1304.26506545533 1289.72144936653 1276.49274545665 1264.62021876499 1254.14238524714 1245.09445565226 1237.5077942288 1231.40940970762 1226.82149643473 1223.76104292081 1222.23952336903 1222.26268496526 1223.83044000795 1226.93686756085 1231.57032455659 1237.71366152889 1245.34453377389 1254.43579505855 1264.95595824766 1276.86970554821 1290.13843049717 1304.72079427097 1320.5732802154 1337.6507324758 1355.90686701767 1375.29474594238 1395.76720862262 1417.27725564692 1439.77838375925 1463.22487183793 1487.57201944924 1512.7763406366 1538.79571639313 1565.58950975288 1593.11864767353 1621.3456739204 1650.23477704661 1679.75179733977 1709.8642163098 1740.54113195456 1771.75322268454 1803.47270243241 1835.67326913127 1868.33004842445 1901.41953417618 1934.91952708795 1968.80907249133 2376.70765679859 2339.06345794901 2301.62435922939 2264.40053390345 2227.40277479059 2190.64253601673 2154.1319774622 2117.88401200421 2081.91235563347 2046.23158049962 2010.85717090674 1975.80558223692 1941.09430272425 1906.74191793145 1872.7681776941 1839.19406518967 1806.0418676577 1773.33524813967 1741.09931741847 1709.36070511579 1678.14762864632 1647.4899584298 1617.41927742351 1587.96893266014 1559.17407606232 1531.07169136334 1503.70060350525 1477.10146642955 1451.31672474792 1426.39054441487 1402.36870726556 1379.29846418303 1357.2283417819 1336.20789790842 1316.2874220276 1297.51757776214 1279.94898651227 1263.63175324312 1248.61493815876 1234.94598102125 1222.67008818663 1211.82959582216 1202.46332598258 1194.60595495507 1188.28741521299 1183.53235314944 1180.3596642582 1178.78212546783 1178.80614093055 1180.43161289723 1183.65194369676 1188.4541687274 1194.81921426313 1202.72226828874 1212.13324793988 1223.01734376229 1235.33561908652 1249.04564235372 1264.10213109549 1280.45758823006 1298.06291408782 1316.86798080247 1336.82215909739 1357.87479080484 1379.97560348405 1403.07506612351 1427.12468705514 1452.07725685839 1477.88704021213 1504.50992141194 1531.90350867324 1560.02720245585 1588.84223294117 1618.31167153029 1648.4004208636 1679.0751874332 1710.30444040316 1742.05835979457 1774.30877675109 1807.0291081884 1840.1942877541 1873.78069468758 1907.76608187256 1942.12950411688 1976.85124747352 2393.63219204867 2355.45651392264 2317.46714397592 2279.67339636484 2242.08516364516 2204.71295733488 2167.56795134577 2130.6620284364 2094.0078298322 2057.61880814567 2021.50928371093 1985.6945044197 1950.19070910876 1915.01519449953 1880.18638562575 1845.72390960274 1811.64867248714 1777.98293884617 1744.75041349475 1711.97632466415 1679.68750763036 1647.91248755108 1616.6815599315 1586.02686675753 1555.98246590034 1526.58439090681 1497.87069775389 1469.8814945694 1442.65894972577 1416.24727312308 1390.69266493056 1366.04322560204 1342.34882068454 1319.66089387826 1298.03222206861 1277.51660673496 1258.16849733938 1240.0425440965 1223.19307997544 1207.67353489622 1193.53578879566 1180.82947441272 1169.60124504295 1159.89402680961 1151.74627879132 1145.19128718703 1140.25652115959 1136.96307772208 1135.32524080898 1135.35017549261 1137.03777238167 1140.38065000799 1145.36431508104 1151.96747257372 1160.16247040366 1169.91585759694 1181.18903069699 1193.93894101809 1208.11883512274 1223.67900240859 1240.56750656765 1258.73088149361 1278.11477651981 1298.66454026794 1320.32573655095 1343.04458947077 1366.76835794256 1391.44564230794 1417.02662747773 1443.46326822766 1470.70942293931 1498.72094233079 1527.45571965204 1556.87370851749 1586.93691409164 1617.609362794 1648.85705509888 1680.64790540978 1712.95167241393 1745.73988278651 1778.9857506275 1812.66409457967 1846.75125419733 1881.22500680777 1916.06448582943 1951.2501012769 1986.76346298896 2373.32876571402 2334.82113840323 2296.49043602664 2258.34566739628 2220.39641514566 2182.65287748516 2145.1259131005 2107.82708939198 2070.76873425125 2033.96399156641 1997.42688063504 1961.17235964526 1925.21639335636 1889.57602506965 1854.26945292381 1819.3161104748 1784.73675142256 1750.55353822212 1716.79013415853 1683.47179826825 1650.62548224709 1618.27992818942 1586.46576564907 1555.21560609153 1524.56413231561 1494.54817985713 1465.20680674903 1436.58134730739 1408.7154448567 1381.65505752431 1355.44843046337 1330.14602715911 1305.80041191107 1282.46607525716 1260.19919412858 1239.05731902828 1219.09898164636 1200.38321819462 1182.96900646372 1166.91461823163 1152.27689315113 1139.11044547742 1127.46682069139 1117.3936248174 1108.93365449137 1102.12405998737 1096.9955758347 1093.57185381538 1091.86893067434 1091.89485773359 1093.64951203601 1097.12459924413 1102.3038481358 1109.16338617078 1117.67227624517 1127.79318725143 1139.483165998 1152.69447566705 1167.37546621996 1183.47144464479 1200.92551713477 1219.67938056672 1239.67404639778 1260.85048578461 1283.15018994378 1306.51564424642 1330.8907181384 1356.22097567162 1382.45391327698 1409.53913250978 1437.42845598535 1466.07599473385 1495.43817486772 1525.47373088721 1556.14367224259 1587.4112289992 1619.24178166921 1651.6027795182 1684.46365095232 1717.79570895535 1751.57205398169 1785.767476222 1820.35835873966 1855.32258262353 1890.63943500889 1926.2895205776 1962.25467695246 1998.51789424438 2392.64706629866 2353.65291531653 2314.81799801775 2276.1504647923 2237.65899302372 2199.3528266297 2161.24181877148 2123.33647796755 2085.64801785609 2048.18841085601 2010.97044597904 1974.00779104233 1937.31505952153 1900.90788226585 1864.8029842668 1829.01826662796 1793.57289381991 1758.48738621883 1723.78371781218 1689.48541880551 1655.61768267221 1622.20747694486 1589.28365674385 1556.87707966585 1525.02072020121 1493.7497813073 1463.10180012418 1433.11674407776 1403.83709277248 1375.30790014097 1347.57683031242 1320.69415962137 1294.71273616178 1269.68788738 1245.67726550575 1222.74062028489 1200.93948867123 1180.33679204859 1160.99633338595 1142.98218965394 1126.35799897503 1111.18614736793 1097.52686646302 1085.43726091024 1074.97029186621 1066.17375022834 1059.08925932397 1053.75135065787 1050.18665725173 1048.41326650529 1048.44026818766 1050.26752343819 1053.88566831462 1059.27635167947 1066.41269348887 1075.25993727072 1085.77626094104 1097.91370389717 1111.61916583231 1126.83543374561 1143.50219759387 1161.55702112199 1180.93624171332 1201.57578076649 1223.41185343107 1246.3815730